
Log started (V11.0.0) Wed May 14 17:25:10 2008

Tried aggregator 1 time.
Reduced MIP has 150 rows, 5001 columns, and 10050 nonzeros.
Presolve time =    0.05 sec.
Clique table members: 100.
MIP emphasis: balance optimality and feasibility.
MIP search method: dynamic search.
Parallel mode: none, using 1 thread.
Root relaxation solution time =    0.14 sec.

        Nodes                                         Cuts/
   Node  Left     Objective  IInf  Best Integer     Best Node    ItCnt     Gap

*     0+    0                         3053.0000       48.0924      529   98.42%
*     0+    0                           97.0000       48.0924      529   50.42%
      0     0       49.0000    80       97.0000      Fract: 2      546   49.48%
*     0+    0                           96.0000       49.0000      546   48.96%
      0     0       54.4701    81       96.0000      Cuts: 42     1186   43.26%
*     0+    0                           80.0000       54.4701     1186   31.91%
      0     0       54.8435    80       80.0000      Cuts: 11     1247   31.45%
*     0+    0                           70.0000       54.8435     1247   21.65%
      0     0       55.6731    74       70.0000      Cuts: 12     1321   20.47%
*     0+    0                           69.0000       55.6731     1321   19.31%
      0     0       55.9263    75       69.0000      Cuts: 11     1354   18.95%
*     0+    0                           67.0000       55.9263     1354   16.53%
      0     0       56.0674    72       67.0000    MIRcuts: 4     1376   16.32%
*     0+    0                           65.0000       56.0674     1376   13.74%
      0     0       56.2663    78       65.0000    MIRcuts: 5     1421   13.44%
*     0+    0                           64.0000       56.2663     1421   12.08%
      0     0       56.2736    83       64.0000       Cuts: 9     1476   12.07%
      0     0       57.4160    67       64.0000      Cuts: 15     1539   10.29%
      0     0       58.0696    54       64.0000       Cuts: 6     1574    9.27%
      0     0       58.2712    50       64.0000       Cuts: 3     1587    8.95%
*     0+    0                           63.0000       58.2712     1587    7.51%
      0     0       58.7702    45       63.0000       Cuts: 2     1606    6.71%
      0     0       59.1017    53       63.0000       Cuts: 6     1633    6.19%
*     0+    0                           62.0000       59.1017     1633    4.67%
      0     0       60.3983    39       62.0000       Cuts: 4     1658    2.58%
      0     0        cutoff             62.0000       Cuts: 8     1659    0.00%

Mixed integer rounding cuts applied:  37
Zero-half cuts applied:  2

Solution pool: 11 solutions saved.

MIP - Integer optimal solution:  Objective = 6.2000000000e+001
Solution time =    1.08 sec.  Iterations = 1659  Nodes = 0


Incumbent solution
Variable Name           Solution Value
Cmax                         62.000000
X_1_29                        1.000000
X_2_33                        1.000000
X_3_27                        1.000000
X_4_7                         1.000000
X_5_33                        1.000000
X_6_1                         1.000000
X_7_37                        1.000000
X_8_33                        1.000000
X_9_39                        1.000000
X_10_37                       1.000000
X_11_33                       1.000000
X_12_45                       1.000000
X_13_6                        1.000000
X_14_15                       1.000000
X_15_27                       1.000000
X_16_27                       1.000000
X_17_40                       1.000000
X_18_50                       1.000000
X_19_33                       1.000000
X_20_42                       1.000000
X_21_33                       1.000000
X_22_21                       1.000000
X_23_8                        1.000000
X_24_35                       1.000000
X_25_9                        1.000000
X_26_26                       1.000000
X_27_15                       1.000000
X_28_22                       1.000000
X_29_33                       1.000000
X_30_21                       1.000000
X_31_15                       1.000000
X_32_15                       1.000000
X_33_37                       1.000000
X_34_40                       1.000000
X_35_27                       1.000000
X_36_3                        1.000000
X_37_44                       1.000000
X_38_50                       1.000000
X_39_26                       1.000000
X_40_44                       1.000000
X_41_25                       1.000000
X_42_3                        1.000000
X_43_27                       1.000000
X_44_20                       1.000000
X_45_22                       1.000000
X_46_19                       1.000000
X_47_45                       1.000000
X_48_33                       1.000000
X_49_11                       1.000000
X_50_33                       1.000000
X_51_37                       1.000000
X_52_33                       1.000000
X_53_33                       1.000000
X_54_6                        1.000000
X_55_23                       1.000000
X_56_33                       1.000000
X_57_21                       1.000000
X_58_33                       1.000000
X_59_27                       1.000000
X_60_41                       1.000000
X_61_43                       1.000000
X_62_37                       1.000000
X_63_23                       1.000000
X_64_3                        1.000000
X_65_23                       1.000000
X_66_5                        1.000000
X_67_27                       1.000000
X_68_33                       1.000000
X_69_26                       1.000000
X_70_23                       1.000000
X_71_35                       1.000000
X_72_33                       1.000000
X_73_33                       1.000000
X_74_18                       1.000000
X_75_37                       1.000000
X_76_15                       1.000000
X_77_3                        1.000000
X_78_31                       1.000000
X_79_15                       1.000000
X_80_20                       1.000000
X_81_33                       1.000000
X_82_15                       1.000000
X_83_27                       1.000000
X_84_28                       1.000000
X_85_27                       1.000000
X_86_6                        1.000000
X_87_9                        1.000000
X_88_33                       1.000000
X_89_37                       1.000000
X_90_24                       1.000000
X_91_45                       1.000000
X_92_45                       1.000000
X_93_33                       1.000000
X_94_49                       1.000000
X_95_5                        1.000000
X_96_40                       1.000000
X_97_15                       1.000000
X_98_44                       1.000000
X_99_37                       1.000000
X_100_45                      1.000000
All other variables in the range 1-5001 are 0.
